model.lp
\ Model model
\ LP format - for model browsing. Use MPS format to capture full model detail.
Minimize
  2 u_4 + 0 t_(0,_0) + 0 t_(0,_1) + 0 w_(5,_0) + 0 v_(5,_0) + ad_(5,_0)
   + 0 w_(5,_1) + 0 v_(5,_1) + ad_(5,_1)
Subject To
 conserv2_4: y_(0,_1,_0) + y_(0,_2,_0) + y_(0,_3,_0) + y_(0,_4,_0)
   - y_(1,_5,_0) - y_(2,_5,_0) - y_(3,_5,_0) - y_(4,_5,_0) = 0
 conserv2_4: y_(0,_1,_1) + y_(0,_2,_1) + y_(0,_3,_1) + y_(0,_4,_1)
   - y_(1,_5,_1) - y_(2,_5,_1) - y_(3,_5,_1) - y_(4,_5,_1) = 0
 conserv4_0: - y_(0,_1,_0) + y_(1,_5,_0) + y_(1,_3,_0) + y_(1,_4,_0)
   - y_(3,_1,_0) - y_(4,_1,_0) = 0
 conserv4_1: - y_(0,_1,_1) + y_(1,_5,_1) + y_(1,_3,_1) + y_(1,_4,_1)
   - y_(3,_1,_1) - y_(4,_1,_1) = 0
 conserv4_2: - y_(0,_2,_0) + y_(2,_5,_0) + y_(2,_3,_0) + y_(2,_4,_0)
   - y_(3,_2,_0) - y_(4,_2,_0) = 0
 conserv4_3: - y_(0,_2,_1) + y_(2,_5,_1) + y_(2,_3,_1) + y_(2,_4,_1)
   - y_(3,_2,_1) - y_(4,_2,_1) = 0
 conserv4_4: - y_(0,_3,_0) - y_(1,_3,_0) - y_(2,_3,_0) + y_(3,_5,_0)
   + y_(3,_2,_0) + y_(3,_1,_0) + y_(3,_4,_0) - y_(4,_3,_0) = 0
 conserv4_5: - y_(0,_3,_1) - y_(1,_3,_1) - y_(2,_3,_1) + y_(3,_5,_1)
   + y_(3,_2,_1) + y_(3,_1,_1) + y_(3,_4,_1) - y_(4,_3,_1) = 0
 conserv4_6: - y_(0,_4,_0) - y_(1,_4,_0) - y_(2,_4,_0) - y_(3,_4,_0)
   + y_(4,_5,_0) + y_(4,_2,_0) + y_(4,_1,_0) + y_(4,_3,_0) = 0
 conserv4_7: - y_(0,_4,_1) - y_(1,_4,_1) - y_(2,_4,_1) - y_(3,_4,_1)
   + y_(4,_5,_1) + y_(4,_2,_1) + y_(4,_1,_1) + y_(4,_3,_1) = 0
 servonce_0: y_(0,_1,_0) + y_(0,_1,_1) + y_(3,_1,_0) + y_(3,_1,_1)
   + y_(4,_1,_0) + y_(4,_1,_1) = 1
 servonce_1: y_(0,_2,_0) + y_(0,_2,_1) + y_(3,_2,_0) + y_(3,_2,_1)
   + y_(4,_2,_0) + y_(4,_2,_1) = 1
 servonce_2: y_(0,_3,_0) + y_(0,_3,_1) + y_(1,_3,_0) + y_(1,_3,_1)
   + y_(2,_3,_0) + y_(2,_3,_1) + y_(4,_3,_0) + y_(4,_3,_1) = 1
 truck_once_0: y_(0,_1,_0) + y_(0,_2,_0) + y_(0,_3,_0) + y_(0,_4,_0) <= 1
 truck_once_0: y_(0,_1,_1) + y_(0,_2,_1) + y_(0,_3,_1) + y_(0,_4,_1) <= 1
 linking_0: y_(0,_1,_0) <= 1
 linking_1: y_(0,_1,_1) <= 1
 linking_2: y_(0,_2,_0) <= 1
 linking_3: y_(0,_2,_1) <= 1
 linking_4: y_(0,_3,_0) <= 1
 linking_5: y_(0,_3,_1) <= 1
 linking_6: y_(0,_4,_0) <= 1
 linking_7: y_(0,_4,_1) <= 1
 linking_8: y_(1,_5,_0) <= 1
 linking_9: y_(1,_5,_1) <= 1
 linking_10: y_(1,_3,_0) <= 1
 linking_11: y_(1,_3,_1) <= 1
 linking_12: y_(1,_4,_0) <= 1
 linking_13: y_(1,_4,_1) <= 1
 linking_14: y_(2,_5,_0) <= 1
 linking_15: y_(2,_5,_1) <= 1
 linking_16: y_(2,_3,_0) <= 1
 linking_17: y_(2,_3,_1) <= 1
 linking_18: y_(2,_4,_0) <= 1
 linking_19: y_(2,_4,_1) <= 1
 linking_20: y_(3,_5,_0) <= 1
 linking_21: y_(3,_5,_1) <= 1
 linking_22: y_(3,_2,_0) <= 1
 linking_23: y_(3,_2,_1) <= 1
 linking_24: y_(3,_1,_0) <= 1
 linking_25: y_(3,_1,_1) <= 1
 linking_26: y_(3,_4,_0) <= 1
 linking_27: y_(3,_4,_1) <= 1
 linking_28: y_(4,_5,_0) <= 1
 linking_29: y_(4,_5,_1) <= 1
 linking_30: y_(4,_2,_0) <= 1
 linking_31: y_(4,_2,_1) <= 1
 linking_32: y_(4,_1,_0) <= 1
 linking_33: y_(4,_1,_1) <= 1
 linking_34: y_(4,_3,_0) <= 1
 linking_35: y_(4,_3,_1) <= 1
 sync_0: y_(0,_4,_0) + y_(0,_4,_1) + y_(1,_4,_0) + y_(1,_4,_1)
   + y_(2,_4,_0) + y_(2,_4,_1) + y_(3,_4,_0) + y_(3,_4,_1) - 99999 u_4
   <= 0
 drone_endu1_0: t_(1,_0) <= 150
 drone_endu1_1: t_(1,_1) <= 150
 drone_endu1_2: t_(2,_0) <= 150
 drone_endu1_3: t_(2,_1) <= 150
 drone_endu1_4: t_(3,_0) <= 150
 drone_endu1_5: t_(3,_1) <= 150
 drone_endu1_6: t_(4,_0) <= 150
 drone_endu1_7: t_(4,_1) <= 150
 drone_endu1_8: t_(5,_0) <= 150
 drone_endu1_9: t_(5,_1) <= 150
 drone_endu2_10: - 99999 y_(1,_5,_0) - t_(1,_0) + t_(5,_0) >= -99991
 drone_endu2_11: - 99999 y_(1,_5,_1) - t_(1,_1) + t_(5,_1) >= -99991
 drone_endu2_12: - 99999 y_(1,_3,_0) - t_(1,_0) + t_(3,_0) >= -99991
 drone_endu2_13: - 99999 y_(1,_3,_1) - t_(1,_1) + t_(3,_1) >= -99991
 drone_endu2_14: - 99999 y_(1,_4,_0) - t_(1,_0) + t_(4,_0) >= -99998.1
 drone_endu2_15: - 99999 y_(1,_4,_1) - t_(1,_1) + t_(4,_1) >= -99998.1
 drone_endu2_16: - 99999 y_(2,_5,_0) - t_(2,_0) + t_(5,_0) >= -99991
 drone_endu2_17: - 99999 y_(2,_5,_1) - t_(2,_1) + t_(5,_1) >= -99991
 drone_endu2_18: - 99999 y_(2,_3,_0) - t_(2,_0) + t_(3,_0) >= -99990
 drone_endu2_19: - 99999 y_(2,_3,_1) - t_(2,_1) + t_(3,_1) >= -99990
 drone_endu2_20: - 99999 y_(2,_4,_0) - t_(2,_0) + t_(4,_0) >= -99998.3
 drone_endu2_21: - 99999 y_(2,_4,_1) - t_(2,_1) + t_(4,_1) >= -99998.3
 drone_endu2_22: - 99999 y_(3,_5,_0) - t_(3,_0) + t_(5,_0) >= -99993
 drone_endu2_23: - 99999 y_(3,_5,_1) - t_(3,_1) + t_(5,_1) >= -99993
 drone_endu2_24: - 99999 y_(3,_2,_0) + t_(2,_0) - t_(3,_0) >= -99990
 drone_endu2_25: - 99999 y_(3,_2,_1) + t_(2,_1) - t_(3,_1) >= -99990
 drone_endu2_26: - 99999 y_(3,_1,_0) + t_(1,_0) - t_(3,_0) >= -99991
 drone_endu2_27: - 99999 y_(3,_1,_1) + t_(1,_1) - t_(3,_1) >= -99991
 drone_endu2_28: - 99999 y_(3,_4,_0) - t_(3,_0) + t_(4,_0) >= -99993
 drone_endu2_29: - 99999 y_(3,_4,_1) - t_(3,_1) + t_(4,_1) >= -99993
 drone_endu3_30: - 99999 y_(4,_5,_0) + t_(5,_0) >= -99990
 drone_endu3_31: - 99999 y_(4,_5,_1) + t_(5,_1) >= -99990
 drone_endu3_32: - 99999 y_(4,_2,_0) + t_(2,_0) >= -99998.3
 drone_endu3_33: - 99999 y_(4,_2,_1) + t_(2,_1) >= -99998.3
 drone_endu3_34: - 99999 y_(4,_1,_0) + t_(1,_0) >= -99998.1
 drone_endu3_35: - 99999 y_(4,_1,_1) + t_(1,_1) >= -99998.1
 drone_endu3_36: - 99999 y_(4,_3,_0) + t_(3,_0) >= -99993
 drone_endu3_37: - 99999 y_(4,_3,_1) + t_(3,_1) >= -99993
 drone_endu3_38: - 99999 y_(0,_1,_0) + t_(1,_0) >= -99993
 drone_endu3_39: - 99999 y_(0,_1,_1) + t_(1,_1) >= -99993
 drone_endu3_40: - 99999 y_(0,_2,_0) + t_(2,_0) >= -99992
 drone_endu3_41: - 99999 y_(0,_2,_1) + t_(2,_1) >= -99992
 drone_endu3_42: - 99999 y_(0,_3,_0) + t_(3,_0) >= -99994
 drone_endu3_43: - 99999 y_(0,_3,_1) + t_(3,_1) >= -99994
 drone_endu3_44: - 99999 y_(0,_4,_0) + t_(4,_0) >= -99992
 drone_endu3_45: - 99999 y_(0,_4,_1) + t_(4,_1) >= -99992
 drone_load1_0: w_(1,_0) <= 500
 drone_load1_1: w_(1,_1) <= 500
 drone_load1_2: w_(2,_0) <= 500
 drone_load1_3: w_(2,_1) <= 500
 drone_load1_4: w_(3,_0) <= 500
 drone_load1_5: w_(3,_1) <= 500
 drone_load2_6: - 99999 y_(0,_1,_0) - w_(0,_0) + w_(1,_0)
   >= -99996.7520108256
 drone_load2_7: - 99999 y_(0,_1,_1) - w_(0,_1) + w_(1,_1)
   >= -99996.7520108256
 drone_load2_8: - 99999 y_(3,_1,_0) + w_(1,_0) - w_(3,_0)
   >= -99996.7520108256
 drone_load2_9: - 99999 y_(3,_1,_1) + w_(1,_1) - w_(3,_1)
   >= -99996.7520108256
 drone_load2_10: - 99999 y_(4,_1,_0) + w_(1,_0) - w_(4,_0)
   >= -99996.7520108256
 drone_load2_11: - 99999 y_(4,_1,_1) + w_(1,_1) - w_(4,_1)
   >= -99996.7520108256
 drone_load2_12: - 99999 y_(0,_2,_0) - w_(0,_0) + w_(2,_0)
   >= -99996.47297422888
 drone_load2_13: - 99999 y_(0,_2,_1) - w_(0,_1) + w_(2,_1)
   >= -99996.47297422888
 drone_load2_14: - 99999 y_(3,_2,_0) + w_(2,_0) - w_(3,_0)
   >= -99996.47297422888
 drone_load2_15: - 99999 y_(3,_2,_1) + w_(2,_1) - w_(3,_1)
   >= -99996.47297422888
 drone_load2_16: - 99999 y_(4,_2,_0) + w_(2,_0) - w_(4,_0)
   >= -99996.47297422888
 drone_load2_17: - 99999 y_(4,_2,_1) + w_(2,_1) - w_(4,_1)
   >= -99996.47297422888
 drone_load2_18: - 99999 y_(0,_3,_0) - w_(0,_0) + w_(3,_0)
   >= -99995.62256378353
 drone_load2_19: - 99999 y_(0,_3,_1) - w_(0,_1) + w_(3,_1)
   >= -99995.62256378353
 drone_load2_20: - 99999 y_(2,_3,_0) - w_(2,_0) + w_(3,_0)
   >= -99995.62256378353
 drone_load2_21: - 99999 y_(2,_3,_1) - w_(2,_1) + w_(3,_1)
   >= -99995.62256378353
 drone_load2_22: - 99999 y_(1,_3,_0) - w_(1,_0) + w_(3,_0)
   >= -99995.62256378353
 drone_load2_23: - 99999 y_(1,_3,_1) - w_(1,_1) + w_(3,_1)
   >= -99995.62256378353
 drone_load2_24: - 99999 y_(4,_3,_0) + w_(3,_0) - w_(4,_0)
   >= -99995.62256378353
 drone_load2_25: - 99999 y_(4,_3,_1) + w_(3,_1) - w_(4,_1)
   >= -99995.62256378353
 drone_load2_26: - 99999 y_(0,_4,_0) - w_(0,_0) + w_(4,_0)
   >= -99998.99000000001
 drone_load2_27: - 99999 y_(0,_4,_1) - w_(0,_1) + w_(4,_1)
   >= -99998.99000000001
 drone_load2_28: - 99999 y_(2,_4,_0) - w_(2,_0) + w_(4,_0)
   >= -99998.99000000001
 drone_load2_29: - 99999 y_(2,_4,_1) - w_(2,_1) + w_(4,_1)
   >= -99998.99000000001
 drone_load2_30: - 99999 y_(1,_4,_0) - w_(1,_0) + w_(4,_0)
   >= -99998.99000000001
 drone_load2_31: - 99999 y_(1,_4,_1) - w_(1,_1) + w_(4,_1)
   >= -99998.99000000001
 drone_load2_32: - 99999 y_(3,_4,_0) - w_(3,_0) + w_(4,_0)
   >= -99998.99000000001
 drone_load2_33: - 99999 y_(3,_4,_1) - w_(3,_1) + w_(4,_1)
   >= -99998.99000000001
 drone_load3_34: v_(1,_0) <= 100
 drone_load3_35: v_(1,_1) <= 100
 drone_load3_36: v_(2,_0) <= 100
 drone_load3_37: v_(2,_1) <= 100
 drone_load3_38: v_(3,_0) <= 100
 drone_load3_39: v_(3,_1) <= 100
 drone_load4_40: - 99999 y_(0,_1,_0) - v_(0,_0) + v_(1,_0)
   >= -99997.91882201025
 drone_load4_41: - 99999 y_(0,_1,_1) - v_(0,_1) + v_(1,_1)
   >= -99997.91882201025
 drone_load4_42: - 99999 y_(3,_1,_0) + v_(1,_0) - v_(3,_0)
   >= -99997.91882201025
 drone_load4_43: - 99999 y_(3,_1,_1) + v_(1,_1) - v_(3,_1)
   >= -99997.91882201025
 drone_load4_44: - 99999 y_(4,_1,_0) + v_(1,_0) - v_(4,_0)
   >= -99997.91882201025
 drone_load4_45: - 99999 y_(4,_1,_1) + v_(1,_1) - v_(4,_1)
   >= -99997.91882201025
 drone_load4_46: - 99999 y_(0,_2,_0) - v_(0,_0) + v_(2,_0)
   >= -99997.30416514189
 drone_load4_47: - 99999 y_(0,_2,_1) - v_(0,_1) + v_(2,_1)
   >= -99997.30416514189
 drone_load4_48: - 99999 y_(3,_2,_0) + v_(2,_0) - v_(3,_0)
   >= -99997.30416514189
 drone_load4_49: - 99999 y_(3,_2,_1) + v_(2,_1) - v_(3,_1)
   >= -99997.30416514189
 drone_load4_50: - 99999 y_(4,_2,_0) + v_(2,_0) - v_(4,_0)
   >= -99997.30416514189
 drone_load4_51: - 99999 y_(4,_2,_1) + v_(2,_1) - v_(4,_1)
   >= -99997.30416514189
 drone_load4_52: - 99999 y_(0,_3,_0) - v_(0,_0) + v_(3,_0)
   >= -99997.91439156581
 drone_load4_53: - 99999 y_(0,_3,_1) - v_(0,_1) + v_(3,_1)
   >= -99997.91439156581
 drone_load4_54: - 99999 y_(2,_3,_0) - v_(2,_0) + v_(3,_0)
   >= -99997.91439156581
 drone_load4_55: - 99999 y_(2,_3,_1) - v_(2,_1) + v_(3,_1)
   >= -99997.91439156581
 drone_load4_56: - 99999 y_(1,_3,_0) - v_(1,_0) + v_(3,_0)
   >= -99997.91439156581
 drone_load4_57: - 99999 y_(1,_3,_1) - v_(1,_1) + v_(3,_1)
   >= -99997.91439156581
 drone_load4_58: - 99999 y_(4,_3,_0) + v_(3,_0) - v_(4,_0)
   >= -99997.91439156581
 drone_load4_59: - 99999 y_(4,_3,_1) + v_(3,_1) - v_(4,_1)
   >= -99997.91439156581
 drone_load4_60: - 99999 y_(0,_4,_0) - v_(0,_0) + v_(4,_0)
   >= -99998.99000000001
 drone_load4_61: - 99999 y_(0,_4,_1) - v_(0,_1) + v_(4,_1)
   >= -99998.99000000001
 drone_load4_62: - 99999 y_(2,_4,_0) - v_(2,_0) + v_(4,_0)
   >= -99998.99000000001
 drone_load4_63: - 99999 y_(2,_4,_1) - v_(2,_1) + v_(4,_1)
   >= -99998.99000000001
 drone_load4_64: - 99999 y_(1,_4,_0) - v_(1,_0) + v_(4,_0)
   >= -99998.99000000001
 drone_load4_65: - 99999 y_(1,_4,_1) - v_(1,_1) + v_(4,_1)
   >= -99998.99000000001
 drone_load4_66: - 99999 y_(3,_4,_0) - v_(3,_0) + v_(4,_0)
   >= -99998.99000000001
 drone_load4_67: - 99999 y_(3,_4,_1) - v_(3,_1) + v_(4,_1)
   >= -99998.99000000001
 sync1_0: - 99999 y_(1,_5,_0) - ad_(1,_0) + ad_(5,_0) >= -99991
 sync1_1: - 99999 y_(1,_5,_1) - ad_(1,_1) + ad_(5,_1) >= -99991
 sync1_2: - 99999 y_(1,_3,_0) - ad_(1,_0) + ad_(3,_0) >= -99991
 sync1_3: - 99999 y_(1,_3,_1) - ad_(1,_1) + ad_(3,_1) >= -99991
 sync1_4: - 99999 y_(1,_4,_0) - ad_(1,_0) + ad_(4,_0) >= -99998.1
 sync1_5: - 99999 y_(1,_4,_1) - ad_(1,_1) + ad_(4,_1) >= -99998.1
 sync1_6: - 99999 y_(2,_5,_0) - ad_(2,_0) + ad_(5,_0) >= -99991
 sync1_7: - 99999 y_(2,_5,_1) - ad_(2,_1) + ad_(5,_1) >= -99991
 sync1_8: - 99999 y_(2,_3,_0) - ad_(2,_0) + ad_(3,_0) >= -99990
 sync1_9: - 99999 y_(2,_3,_1) - ad_(2,_1) + ad_(3,_1) >= -99990
 sync1_10: - 99999 y_(2,_4,_0) - ad_(2,_0) + ad_(4,_0) >= -99998.3
 sync1_11: - 99999 y_(2,_4,_1) - ad_(2,_1) + ad_(4,_1) >= -99998.3
 sync1_12: - 99999 y_(3,_5,_0) - ad_(3,_0) + ad_(5,_0) >= -99993
 sync1_13: - 99999 y_(3,_5,_1) - ad_(3,_1) + ad_(5,_1) >= -99993
 sync1_14: - 99999 y_(3,_2,_0) + ad_(2,_0) - ad_(3,_0) >= -99990
 sync1_15: - 99999 y_(3,_2,_1) + ad_(2,_1) - ad_(3,_1) >= -99990
 sync1_16: - 99999 y_(3,_1,_0) + ad_(1,_0) - ad_(3,_0) >= -99991
 sync1_17: - 99999 y_(3,_1,_1) + ad_(1,_1) - ad_(3,_1) >= -99991
 sync1_18: - 99999 y_(3,_4,_0) - ad_(3,_0) + ad_(4,_0) >= -99993
 sync1_19: - 99999 y_(3,_4,_1) - ad_(3,_1) + ad_(4,_1) >= -99993
 sync1_20: - 99999 y_(4,_5,_0) - ad_(4,_0) + ad_(5,_0) >= -99990
 sync1_21: - 99999 y_(4,_5,_1) - ad_(4,_1) + ad_(5,_1) >= -99990
 sync1_22: - 99999 y_(4,_2,_0) + ad_(2,_0) - ad_(4,_0) >= -99998.3
 sync1_23: - 99999 y_(4,_2,_1) + ad_(2,_1) - ad_(4,_1) >= -99998.3
 sync1_24: - 99999 y_(4,_1,_0) + ad_(1,_0) - ad_(4,_0) >= -99998.1
 sync1_25: - 99999 y_(4,_1,_1) + ad_(1,_1) - ad_(4,_1) >= -99998.1
 sync1_26: - 99999 y_(4,_3,_0) + ad_(3,_0) - ad_(4,_0) >= -99993
 sync1_27: - 99999 y_(4,_3,_1) + ad_(3,_1) - ad_(4,_1) >= -99993
 sync1_28: - 99999 y_(0,_1,_0) - ad_(0,_0) + ad_(1,_0) >= -99993
 sync1_29: - 99999 y_(0,_1,_1) - ad_(0,_1) + ad_(1,_1) >= -99993
 sync1_30: - 99999 y_(0,_2,_0) - ad_(0,_0) + ad_(2,_0) >= -99992
 sync1_31: - 99999 y_(0,_2,_1) - ad_(0,_1) + ad_(2,_1) >= -99992
 sync1_32: - 99999 y_(0,_3,_0) - ad_(0,_0) + ad_(3,_0) >= -99994
 sync1_33: - 99999 y_(0,_3,_1) - ad_(0,_1) + ad_(3,_1) >= -99994
 sync1_34: - 99999 y_(0,_4,_0) - ad_(0,_0) + ad_(4,_0) >= -99992
 sync1_35: - 99999 y_(0,_4,_1) - ad_(0,_1) + ad_(4,_1) >= -99992
Bounds
Binaries
 y_(0,_1,_0) y_(0,_1,_1) y_(0,_2,_0) y_(0,_2,_1) y_(0,_3,_0) y_(0,_3,_1)
 y_(0,_4,_0) y_(0,_4,_1) y_(1,_5,_0) y_(1,_5,_1) y_(1,_3,_0) y_(1,_3,_1)
 y_(1,_4,_0) y_(1,_4,_1) y_(2,_5,_0) y_(2,_5,_1) y_(2,_3,_0) y_(2,_3,_1)
 y_(2,_4,_0) y_(2,_4,_1) y_(3,_5,_0) y_(3,_5,_1) y_(3,_2,_0) y_(3,_2,_1)
 y_(3,_1,_0) y_(3,_1,_1) y_(3,_4,_0) y_(3,_4,_1) y_(4,_5,_0) y_(4,_5,_1)
 y_(4,_2,_0) y_(4,_2,_1) y_(4,_1,_0) y_(4,_1,_1) y_(4,_3,_0) y_(4,_3,_1)
 u_4
End
